30
1 0 15
2 0 12
2 1 1
3 0 14
3 1 3
3 2 10
4 0 17
4 1 8
4 2 13
4 3 5
5 0 17
5 1 12
5 2 15
5 3 2
5 4 12
6 0 1
6 1 6
6 2 10
6 3 12
6 4 16
6 5 2
7 0 17
7 1 16
7 2 1
7 3 13
7 4 1
7 5 18
7 6 3
8 0 11
8 1 16
8 2 16
8 3 17
8 4 4
8 5 13
8 6 14
8 7 19
9 0 20
9 1 2
9 2 17
9 3 12
9 4 5
9 5 3
9 6 19
9 7 19
9 8 4
10 0 14
10 1 9
10 2 13
10 3 15
10 4 2
10 5 20
10 6 9
10 7 13
10 8 13
10 9 11
11 0 2
11 1 10
11 2 16
11 3 12
11 4 5
11 5 5
11 6 20
11 7 18
11 8 7
11 9 1
11 10 10
12 0 10
12 1 10
12 2 10
12 3 8
12 4 15
12 5 9
12 6 5
12 7 20
12 8 2
12 9 14
12 10 19
12 11 2
13 0 7
13 1 15
13 2 14
13 3 13
13 4 17
13 5 9
13 6 19
13 7 10
13 8 4
13 9 16
13 10 11
13 11 8
13 12 10
14 0 6
14 1 10
14 2 13
14 3 4
14 4 13
14 5 5
14 6 15
14 7 14
14 8 10
14 9 15
14 10 18
14 11 1
14 12 14
14 13 19
15 0 5
15 1 10
15 2 14
15 3 1
15 4 5
15 5 1
15 6 14
15 7 10
15 8 2
15 9 6
15 10 12
15 11 5
15 12 9
15 13 2
15 14 2
16 0 20
16 1 13
16 2 12
16 3 11
16 4 5
16 5 12
16 6 11
16 7 2
16 8 12
16 9 5
16 10 9
16 11 7
16 12 17
16 13 4
16 14 17
16 15 16
17 0 6
17 1 10
17 2 20
17 3 8
17 4 15
17 5 18
17 6 2
17 7 10
17 8 11
17 9 18
17 10 13
17 11 11
17 12 19
17 13 17
17 14 17
17 15 4
17 16 8
18 0 16
18 1 18
18 2 9
18 3 9
18 4 12
18 5 20
18 6 9
18 7 19
18 8 12
18 9 11
18 10 16
18 11 18
18 12 11
18 13 13
18 14 2
18 15 8
18 16 5
18 17 20
19 0 19
19 1 4
19 2 20
19 3 16
19 4 17
19 5 19
19 6 7
19 7 12
19 8 3
19 9 8
19 10 18
19 11 15
19 12 1
19 13 10
19 14 3
19 15 7
19 16 15
19 17 18
19 18 17
20 0 18
20 1 17
20 2 14
20 3 9
20 4 14
20 5 10
20 6 19
20 7 4
20 8 12
20 9 11
20 10 16
20 11 4
20 12 5
20 13 16
20 14 8
20 15 3
20 16 4
20 17 16
20 18 12
20 19 19
21 0 17
21 1 15
21 2 16
21 3 19
21 4 6
21 5 16
21 6 9
21 7 6
21 8 15
21 9 7
21 10 6
21 11 7
21 12 10
21 13 12
21 14 4
21 15 18
21 16 1
21 17 9
21 18 16
21 19 15
21 20 1
22 0 14
22 1 2
22 2 11
22 3 18
22 4 20
22 5 5
22 6 16
22 7 15
22 8 3
22 9 1
22 10 1
22 11 5
22 12 15
22 13 1
22 14 1
22 15 10
22 16 20
22 17 9
22 18 14
22 19 15
22 20 7
22 21 3
23 0 7
23 1 7
23 2 5
23 3 4
23 4 18
23 5 5
23 6 6
23 7 20
23 8 13
23 9 11
23 10 12
23 11 1
23 12 11
23 13 4
23 14 13
23 15 4
23 16 1
23 17 9
23 18 13
23 19 8
23 20 19
23 21 13
23 22 18
24 0 15
24 1 3
24 2 4
24 3 6
24 4 13
24 5 19
24 6 11
24 7 15
24 8 10
24 9 12
24 10 14
24 11 5
24 12 2
24 13 17
24 14 8
24 15 16
24 16 15
24 17 13
24 18 19
24 19 16
24 20 6
24 21 16
24 22 13
24 23 7
25 0 8
25 1 12
25 2 14
25 3 14
25 4 4
25 5 10
25 6 11
25 7 16
25 8 4
25 9 16
25 10 17
25 11 13
25 12 4
25 13 7
25 14 2
25 15 10
25 16 19
25 17 1
25 18 13
25 19 4
25 20 12
25 21 13
25 22 19
25 23 4
25 24 13
26 0 20
26 1 19
26 2 18
26 3 10
26 4 15
26 5 15
26 6 9
26 7 10
26 8 10
26 9 3
26 10 11
26 11 7
26 12 9
26 13 9
26 14 5
26 15 19
26 16 2
26 17 7
26 18 13
26 19 4
26 20 1
26 21 14
26 22 7
26 23 12
26 24 19
26 25 3
27 0 7
27 1 16
27 2 10
27 3 9
27 4 13
27 5 18
27 6 1
27 7 7
27 8 1
27 9 19
27 10 20
27 11 19
27 12 14
27 13 8
27 14 8
27 15 12
27 16 15
27 17 2
27 18 17
27 19 8
27 20 12
27 21 1
27 22 14
27 23 1
27 24 5
27 25 7
27 26 14
28 0 2
28 1 15
28 2 17
28 3 8
28 4 14
28 5 19
28 6 19
28 7 19
28 8 15
28 9 14
28 10 19
28 11 10
28 12 16
28 13 3
28 14 17
28 15 16
28 16 11
28 17 8
28 18 12
28 19 20
28 20 20
28 21 11
28 22 16
28 23 11
28 24 1
28 25 7
28 26 19
28 27 14
29 0 12
29 1 17
29 2 20
29 3 15
29 4 9
29 5 16
29 6 11
29 7 16
29 8 7
29 9 13
29 10 11
29 11 10
29 12 11
29 13 10
29 14 9
29 15 2
29 16 14
29 17 11
29 18 16
29 19 9
29 20 13
29 21 20
29 22 11
29 23 8
29 24 5
29 25 8
29 26 18
29 27 7
29 28 11
